30 6 125
6 6 6 6 42 42 42 42 42 41 5 5 30 30 30 30 30 5 5 5 5 5 5 5 5 5 5 5 5 5 
0 0 0.0
0 1 18.0
0 2 38.0
0 3 56.0
0 4 76.0
0 5 94.0
0 6 114.0
0 7 132.0
0 8 152.0
0 9 170.0
0 10 103.0
0 11 121.0
0 12 141.0
0 13 159.0
0 14 179.0
0 15 197.0
0 16 217.0
0 17 235.0
0 18 255.0
0 19 273.0
0 20 206.0
0 21 224.0
0 22 244.0
0 23 262.0
0 24 282.0
0 25 300.0
0 26 320.0
0 27 338.0
0 28 358.0
0 29 376.0
1 0 18.0
1 1 0.0
1 2 20.0
1 3 38.0
1 4 58.0
1 5 76.0
1 6 96.0
1 7 114.0
1 8 134.0
1 9 152.0
1 10 121.0
1 11 103.0
1 12 123.0
1 13 141.0
1 14 161.0
1 15 179.0
1 16 199.0
1 17 217.0
1 18 237.0
1 19 255.0
1 20 224.0
1 21 206.0
1 22 226.0
1 23 244.0
1 24 264.0
1 25 282.0
1 26 302.0
1 27 320.0
1 28 340.0
1 29 358.0
2 0 38.0
2 1 20.0
2 2 0.0
2 3 18.0
2 4 38.0
2 5 56.0
2 6 76.0
2 7 94.0
2 8 114.0
2 9 132.0
2 10 141.0
2 11 123.0
2 12 103.0
2 13 121.0
2 14 141.0
2 15 159.0
2 16 179.0
2 17 197.0
2 18 217.0
2 19 235.0
2 20 244.0
2 21 226.0
2 22 206.0
2 23 224.0
2 24 244.0
2 25 262.0
2 26 282.0
2 27 300.0
2 28 320.0
2 29 338.0
3 0 56.0
3 1 38.0
3 2 18.0
3 3 0.0
3 4 20.0
3 5 38.0
3 6 58.0
3 7 76.0
3 8 96.0
3 9 114.0
3 10 159.0
3 11 141.0
3 12 121.0
3 13 103.0
3 14 123.0
3 15 141.0
3 16 161.0
3 17 179.0
3 18 199.0
3 19 217.0
3 20 262.0
3 21 244.0
3 22 224.0
3 23 206.0
3 24 226.0
3 25 244.0
3 26 264.0
3 27 282.0
3 28 302.0
3 29 320.0
4 0 76.0
4 1 58.0
4 2 38.0
4 3 20.0
4 4 0.0
4 5 18.0
4 6 38.0
4 7 56.0
4 8 76.0
4 9 94.0
4 10 179.0
4 11 161.0
4 12 141.0
4 13 123.0
4 14 103.0
4 15 121.0
4 16 141.0
4 17 159.0
4 18 179.0
4 19 197.0
4 20 282.0
4 21 264.0
4 22 244.0
4 23 226.0
4 24 206.0
4 25 224.0
4 26 244.0
4 27 262.0
4 28 282.0
4 29 300.0
5 0 94.0
5 1 76.0
5 2 56.0
5 3 38.0
5 4 18.0
5 5 0.0
5 6 20.0
5 7 38.0
5 8 58.0
5 9 76.0
5 10 197.0
5 11 179.0
5 12 159.0
5 13 141.0
5 14 121.0
5 15 103.0
5 16 123.0
5 17 141.0
5 18 161.0
5 19 179.0
5 20 300.0
5 21 282.0
5 22 262.0
5 23 244.0
5 24 224.0
5 25 206.0
5 26 226.0
5 27 244.0
5 28 264.0
5 29 282.0
6 0 114.0
6 1 96.0
6 2 76.0
6 3 58.0
6 4 38.0
6 5 20.0
6 6 0.0
6 7 18.0
6 8 38.0
6 9 56.0
6 10 217.0
6 11 199.0
6 12 179.0
6 13 161.0
6 14 141.0
6 15 123.0
6 16 103.0
6 17 121.0
6 18 141.0
6 19 159.0
6 20 320.0
6 21 302.0
6 22 282.0
6 23 264.0
6 24 244.0
6 25 226.0
6 26 206.0
6 27 224.0
6 28 244.0
6 29 262.0
7 0 132.0
7 1 114.0
7 2 94.0
7 3 76.0
7 4 56.0
7 5 38.0
7 6 18.0
7 7 0.0
7 8 20.0
7 9 38.0
7 10 235.0
7 11 217.0
7 12 197.0
7 13 179.0
7 14 159.0
7 15 141.0
7 16 121.0
7 17 103.0
7 18 123.0
7 19 141.0
7 20 338.0
7 21 320.0
7 22 300.0
7 23 282.0
7 24 262.0
7 25 244.0
7 26 224.0
7 27 206.0
7 28 226.0
7 29 244.0
8 0 152.0
8 1 134.0
8 2 114.0
8 3 96.0
8 4 76.0
8 5 58.0
8 6 38.0
8 7 20.0
8 8 0.0
8 9 18.0
8 10 255.0
8 11 237.0
8 12 217.0
8 13 199.0
8 14 179.0
8 15 161.0
8 16 141.0
8 17 123.0
8 18 103.0
8 19 121.0
8 20 358.0
8 21 340.0
8 22 320.0
8 23 302.0
8 24 282.0
8 25 264.0
8 26 244.0
8 27 226.0
8 28 206.0
8 29 224.0
9 0 170.0
9 1 152.0
9 2 132.0
9 3 114.0
9 4 94.0
9 5 76.0
9 6 56.0
9 7 38.0
9 8 18.0
9 9 0.0
9 10 273.0
9 11 255.0
9 12 235.0
9 13 217.0
9 14 197.0
9 15 179.0
9 16 159.0
9 17 141.0
9 18 121.0
9 19 103.0
9 20 376.0
9 21 358.0
9 22 338.0
9 23 320.0
9 24 300.0
9 25 282.0
9 26 262.0
9 27 244.0
9 28 224.0
9 29 206.0
10 0 103.0
10 1 121.0
10 2 141.0
10 3 159.0
10 4 179.0
10 5 197.0
10 6 217.0
10 7 235.0
10 8 255.0
10 9 273.0
10 10 0.0
10 11 18.0
10 12 38.0
10 13 56.0
10 14 76.0
10 15 94.0
10 16 114.0
10 17 132.0
10 18 152.0
10 19 170.0
10 20 103.0
10 21 121.0
10 22 141.0
10 23 159.0
10 24 179.0
10 25 197.0
10 26 217.0
10 27 235.0
10 28 255.0
10 29 273.0
11 0 121.0
11 1 103.0
11 2 123.0
11 3 141.0
11 4 161.0
11 5 179.0
11 6 199.0
11 7 217.0
11 8 237.0
11 9 255.0
11 10 18.0
11 11 0.0
11 12 20.0
11 13 38.0
11 14 58.0
11 15 76.0
11 16 96.0
11 17 114.0
11 18 134.0
11 19 152.0
11 20 121.0
11 21 103.0
11 22 123.0
11 23 141.0
11 24 161.0
11 25 179.0
11 26 199.0
11 27 217.0
11 28 237.0
11 29 255.0
12 0 141.0
12 1 123.0
12 2 103.0
12 3 121.0
12 4 141.0
12 5 159.0
12 6 179.0
12 7 197.0
12 8 217.0
12 9 235.0
12 10 38.0
12 11 20.0
12 12 0.0
12 13 18.0
12 14 38.0
12 15 56.0
12 16 76.0
12 17 94.0
12 18 114.0
12 19 132.0
12 20 141.0
12 21 123.0
12 22 103.0
12 23 121.0
12 24 141.0
12 25 159.0
12 26 179.0
12 27 197.0
12 28 217.0
12 29 235.0
13 0 159.0
13 1 141.0
13 2 121.0
13 3 103.0
13 4 123.0
13 5 141.0
13 6 161.0
13 7 179.0
13 8 199.0
13 9 217.0
13 10 56.0
13 11 38.0
13 12 18.0
13 13 0.0
13 14 20.0
13 15 38.0
13 16 58.0
13 17 76.0
13 18 96.0
13 19 114.0
13 20 159.0
13 21 141.0
13 22 121.0
13 23 103.0
13 24 123.0
13 25 141.0
13 26 161.0
13 27 179.0
13 28 199.0
13 29 217.0
14 0 179.0
14 1 161.0
14 2 141.0
14 3 123.0
14 4 103.0
14 5 121.0
14 6 141.0
14 7 159.0
14 8 179.0
14 9 197.0
14 10 76.0
14 11 58.0
14 12 38.0
14 13 20.0
14 14 0.0
14 15 18.0
14 16 38.0
14 17 56.0
14 18 76.0
14 19 94.0
14 20 179.0
14 21 161.0
14 22 141.0
14 23 123.0
14 24 103.0
14 25 121.0
14 26 141.0
14 27 159.0
14 28 179.0
14 29 197.0
15 0 197.0
15 1 179.0
15 2 159.0
15 3 141.0
15 4 121.0
15 5 103.0
15 6 123.0
15 7 141.0
15 8 161.0
15 9 179.0
15 10 94.0
15 11 76.0
15 12 56.0
15 13 38.0
15 14 18.0
15 15 0.0
15 16 20.0
15 17 38.0
15 18 58.0
15 19 76.0
15 20 197.0
15 21 179.0
15 22 159.0
15 23 141.0
15 24 121.0
15 25 103.0
15 26 123.0
15 27 141.0
15 28 161.0
15 29 179.0
16 0 217.0
16 1 199.0
16 2 179.0
16 3 161.0
16 4 141.0
16 5 123.0
16 6 103.0
16 7 121.0
16 8 141.0
16 9 159.0
16 10 114.0
16 11 96.0
16 12 76.0
16 13 58.0
16 14 38.0
16 15 20.0
16 16 0.0
16 17 18.0
16 18 38.0
16 19 56.0
16 20 217.0
16 21 199.0
16 22 179.0
16 23 161.0
16 24 141.0
16 25 123.0
16 26 103.0
16 27 121.0
16 28 141.0
16 29 159.0
17 0 235.0
17 1 217.0
17 2 197.0
17 3 179.0
17 4 159.0
17 5 141.0
17 6 121.0
17 7 103.0
17 8 123.0
17 9 141.0
17 10 132.0
17 11 114.0
17 12 94.0
17 13 76.0
17 14 56.0
17 15 38.0
17 16 18.0
17 17 0.0
17 18 20.0
17 19 38.0
17 20 235.0
17 21 217.0
17 22 197.0
17 23 179.0
17 24 159.0
17 25 141.0
17 26 121.0
17 27 103.0
17 28 123.0
17 29 141.0
18 0 255.0
18 1 237.0
18 2 217.0
18 3 199.0
18 4 179.0
18 5 161.0
18 6 141.0
18 7 123.0
18 8 103.0
18 9 121.0
18 10 152.0
18 11 134.0
18 12 114.0
18 13 96.0
18 14 76.0
18 15 58.0
18 16 38.0
18 17 20.0
18 18 0.0
18 19 18.0
18 20 255.0
18 21 237.0
18 22 217.0
18 23 199.0
18 24 179.0
18 25 161.0
18 26 141.0
18 27 123.0
18 28 103.0
18 29 121.0
19 0 273.0
19 1 255.0
19 2 235.0
19 3 217.0
19 4 197.0
19 5 179.0
19 6 159.0
19 7 141.0
19 8 121.0
19 9 103.0
19 10 170.0
19 11 152.0
19 12 132.0
19 13 114.0
19 14 94.0
19 15 76.0
19 16 56.0
19 17 38.0
19 18 18.0
19 19 0.0
19 20 273.0
19 21 255.0
19 22 235.0
19 23 217.0
19 24 197.0
19 25 179.0
19 26 159.0
19 27 141.0
19 28 121.0
19 29 103.0
20 0 206.0
20 1 224.0
20 2 244.0
20 3 262.0
20 4 282.0
20 5 300.0
20 6 320.0
20 7 338.0
20 8 358.0
20 9 376.0
20 10 103.0
20 11 121.0
20 12 141.0
20 13 159.0
20 14 179.0
20 15 197.0
20 16 217.0
20 17 235.0
20 18 255.0
20 19 273.0
20 20 0.0
20 21 18.0
20 22 38.0
20 23 56.0
20 24 76.0
20 25 94.0
20 26 114.0
20 27 132.0
20 28 152.0
20 29 170.0
21 0 224.0
21 1 206.0
21 2 226.0
21 3 244.0
21 4 264.0
21 5 282.0
21 6 302.0
21 7 320.0
21 8 340.0
21 9 358.0
21 10 121.0
21 11 103.0
21 12 123.0
21 13 141.0
21 14 161.0
21 15 179.0
21 16 199.0
21 17 217.0
21 18 237.0
21 19 255.0
21 20 18.0
21 21 0.0
21 22 20.0
21 23 38.0
21 24 58.0
21 25 76.0
21 26 96.0
21 27 114.0
21 28 134.0
21 29 152.0
22 0 244.0
22 1 226.0
22 2 206.0
22 3 224.0
22 4 244.0
22 5 262.0
22 6 282.0
22 7 300.0
22 8 320.0
22 9 338.0
22 10 141.0
22 11 123.0
22 12 103.0
22 13 121.0
22 14 141.0
22 15 159.0
22 16 179.0
22 17 197.0
22 18 217.0
22 19 235.0
22 20 38.0
22 21 20.0
22 22 0.0
22 23 18.0
22 24 38.0
22 25 56.0
22 26 76.0
22 27 94.0
22 28 114.0
22 29 132.0
23 0 262.0
23 1 244.0
23 2 224.0
23 3 206.0
23 4 226.0
23 5 244.0
23 6 264.0
23 7 282.0
23 8 302.0
23 9 320.0
23 10 159.0
23 11 141.0
23 12 121.0
23 13 103.0
23 14 123.0
23 15 141.0
23 16 161.0
23 17 179.0
23 18 199.0
23 19 217.0
23 20 56.0
23 21 38.0
23 22 18.0
23 23 0.0
23 24 20.0
23 25 38.0
23 26 58.0
23 27 76.0
23 28 96.0
23 29 114.0
24 0 282.0
24 1 264.0
24 2 244.0
24 3 226.0
24 4 206.0
24 5 224.0
24 6 244.0
24 7 262.0
24 8 282.0
24 9 300.0
24 10 179.0
24 11 161.0
24 12 141.0
24 13 123.0
24 14 103.0
24 15 121.0
24 16 141.0
24 17 159.0
24 18 179.0
24 19 197.0
24 20 76.0
24 21 58.0
24 22 38.0
24 23 20.0
24 24 0.0
24 25 18.0
24 26 38.0
24 27 56.0
24 28 76.0
24 29 94.0
25 0 300.0
25 1 282.0
25 2 262.0
25 3 244.0
25 4 224.0
25 5 206.0
25 6 226.0
25 7 244.0
25 8 264.0
25 9 282.0
25 10 197.0
25 11 179.0
25 12 159.0
25 13 141.0
25 14 121.0
25 15 103.0
25 16 123.0
25 17 141.0
25 18 161.0
25 19 179.0
25 20 94.0
25 21 76.0
25 22 56.0
25 23 38.0
25 24 18.0
25 25 0.0
25 26 20.0
25 27 38.0
25 28 58.0
25 29 76.0
26 0 320.0
26 1 302.0
26 2 282.0
26 3 264.0
26 4 244.0
26 5 226.0
26 6 206.0
26 7 224.0
26 8 244.0
26 9 262.0
26 10 217.0
26 11 199.0
26 12 179.0
26 13 161.0
26 14 141.0
26 15 123.0
26 16 103.0
26 17 121.0
26 18 141.0
26 19 159.0
26 20 114.0
26 21 96.0
26 22 76.0
26 23 58.0
26 24 38.0
26 25 20.0
26 26 0.0
26 27 18.0
26 28 38.0
26 29 56.0
27 0 338.0
27 1 320.0
27 2 300.0
27 3 282.0
27 4 262.0
27 5 244.0
27 6 224.0
27 7 206.0
27 8 226.0
27 9 244.0
27 10 235.0
27 11 217.0
27 12 197.0
27 13 179.0
27 14 159.0
27 15 141.0
27 16 121.0
27 17 103.0
27 18 123.0
27 19 141.0
27 20 132.0
27 21 114.0
27 22 94.0
27 23 76.0
27 24 56.0
27 25 38.0
27 26 18.0
27 27 0.0
27 28 20.0
27 29 38.0
28 0 358.0
28 1 340.0
28 2 320.0
28 3 302.0
28 4 282.0
28 5 264.0
28 6 244.0
28 7 226.0
28 8 206.0
28 9 224.0
28 10 255.0
28 11 237.0
28 12 217.0
28 13 199.0
28 14 179.0
28 15 161.0
28 16 141.0
28 17 123.0
28 18 103.0
28 19 121.0
28 20 152.0
28 21 134.0
28 22 114.0
28 23 96.0
28 24 76.0
28 25 58.0
28 26 38.0
28 27 20.0
28 28 0.0
28 29 18.0
29 0 376.0
29 1 358.0
29 2 338.0
29 3 320.0
29 4 300.0
29 5 282.0
29 6 262.0
29 7 244.0
29 8 224.0
29 9 206.0
29 10 273.0
29 11 255.0
29 12 235.0
29 13 217.0
29 14 197.0
29 15 179.0
29 16 159.0
29 17 141.0
29 18 121.0
29 19 103.0
29 20 170.0
29 21 152.0
29 22 132.0
29 23 114.0
29 24 94.0
29 25 76.0
29 26 56.0
29 27 38.0
29 28 18.0
29 29 0.0
